13
0 10 8 0 15 0 12 20 11 0 5 0 13
3 0 9 7 0 6 0 0 14 0 0 12 0
8 4 0 7 13 0 10 0 25 5 0 0 0
0 7 5 0 17 0 0 11 0 14 8 0 6
8 0 13 17 0 15 0 3 9 10 0 0 10
0 6 0 0 6 0 8 0 0 4 0 0 0
12 7 10 0 0 8 0 14 11 0 6 0 0
13 0 0 11 3 9 14 0 18 0 5 0 8
11 14 18 0 9 0 11 18 0 0 4 7 4
9 0 5 14 10 4 0 0 0 0 3 3 0
5 0 0 8 0 0 6 5 4 3 0 9 7
0 12 0 0 0 0 0 0 7 3 9 0 8
13 0 0 6 10 0 0 8 4 0 7 8 0
69
0 2 3 12 8 11 9 5 4 7 10 6 1 0

